15
4 1 6
4 3 7
5 0 11
5 1 9
5 2 3
5 3 1
5 4 6
6 0 10
6 1 5
6 2 4
6 3 3
6 4 11
7 4 7
7 5 2
7 6 9
8 3 7
8 6 3
9 0 3
9 1 8
9 3 5
9 6 11
9 7 10
10 0 9
10 1 10
10 2 7
10 5 2
10 6 1
10 7 10
10 9 2
11 4 8
11 5 11
11 6 7
12 6 5
12 10 10
12 11 7
13 0 5
13 2 2
13 3 10
13 4 4
13 5 5
13 6 9
13 9 3
13 10 7
13 12 10
14 2 7
14 3 3
14 5 1
14 7 10
14 8 8
14 11 8
14 13 6
